
******************************************************************************
This program contains Ipopt, a library for large-scale nonlinear optimization.
 Ipopt is released as open source code under the Eclipse Public License (EPL).
         For more information visit http://projects.coin-or.org/Ipopt

This version of Ipopt was compiled from source code available at
    https://github.com/IDAES/Ipopt as part of the Institute for the Design of
    Advanced Energy Systems Process Systems Engineering Framework (IDAES PSE
    Framework) Copyright (c) 2018-2019. See https://github.com/IDAES/idaes-pse.

This version of Ipopt was compiled using HSL, a collection of Fortran codes
    for large-scale scientific computation.  All technical papers, sales and
    publicity material resulting from use of the HSL codes within IPOPT must
    contain the following acknowledgement:
        HSL, a collection of Fortran codes for large-scale scientific
        computation. See http://www.hsl.rl.ac.uk.
******************************************************************************

This is Ipopt version 3.13.2, running with linear solver ma27.

Number of nonzeros in equality constraint Jacobian...:     1336
Number of nonzeros in inequality constraint Jacobian.:        0
Number of nonzeros in Lagrangian Hessian.............:     1696

Total number of variables............................:      512
                     variables with only lower bounds:      128
                variables with lower and upper bounds:      320
                     variables with only upper bounds:        0
Total number of equality constraints.................:      508
Total number of inequality constraints...............:        0
        inequality constraints with only lower bounds:        0
   inequality constraints with lower and upper bounds:        0
        inequality constraints with only upper bounds:        0

iter    objective    inf_pr   inf_du lg(mu)  ||d||  lg(rg) alpha_du alpha_pr  ls
   0  0.0000000e+00 2.10e+00 1.11e-15  -1.0 0.00e+00    -  0.00e+00 0.00e+00   0
   1  1.9519790e+00 2.92e+01 4.94e+06  -1.0 5.58e+06    -  5.50e-02 3.54e-02f  3
   2  1.7085670e+01 1.90e+01 5.65e+07  -1.0 1.27e+06  -4.0 8.09e-02 3.47e-01h  1
   3  1.7078926e+01 1.90e+01 5.65e+07  -1.0 2.45e+06  -1.8 2.28e-03 8.20e-05h  4
   4  1.7112298e+01 1.90e+01 5.64e+07  -1.0 4.81e+05  -2.2 9.34e-03 2.12e-03h  1
   5  1.7112746e+01 1.90e+01 5.64e+07  -1.0 4.12e+05  -2.7 1.96e-01 2.47e-05h  1
   6  1.1774519e+02 1.63e+01 4.57e+07  -1.0 4.39e+06    -  5.82e-01 1.40e-01h  1
   7  1.2899912e+02 1.58e+01 4.41e+07  -1.0 1.87e+06    -  3.15e-01 3.43e-02h  1
   8  1.2902619e+02 1.58e+01 4.40e+07  -1.0 4.85e+05  -3.2 2.32e-01 7.14e-04h  1
   9  1.1932315e+02 1.40e+01 4.23e+07  -1.0 1.16e+06    -  1.66e-01 4.91e-02H  1
iter    objective    inf_pr   inf_du lg(mu)  ||d||  lg(rg) alpha_du alpha_pr  ls
  10  1.1763824e+02 1.27e+01 3.88e+07  -1.0 1.50e+06    -  2.23e-01 8.83e-02f  1
  11  1.1762346e+02 1.27e+01 3.88e+07  -1.0 7.43e+05    -  2.15e-01 6.50e-04h  1
  12  1.1760479e+02 1.27e+01 3.88e+07  -1.0 4.03e+06    -  1.56e-01 4.55e-05h  1
  13  9.2871543e+01 1.16e+01 3.80e+07  -1.0 4.60e+06    -  1.30e-01 8.89e-02f  2
  14  8.9595672e+01 1.80e+01 3.76e+07  -1.0 7.14e+06    -  7.05e-02 1.73e-02f  4
  15  9.8862036e+01 1.77e+01 3.72e+07  -1.0 7.35e+06    -  1.57e-01 1.65e-02h  1
  16  9.9861693e+01 1.77e+01 3.72e+07  -1.0 8.46e+06    -  8.24e-02 1.59e-03h  8
  17  1.0076942e+02 1.77e+01 3.72e+07  -1.0 7.71e+06  -3.7 9.65e-03 1.08e-03h  2
  18  1.0073386e+02 1.77e+01 3.72e+07  -1.0 8.74e+07    -  5.71e-03 3.44e-05h  2
  19  1.0101107e+02 1.77e+01 3.71e+07  -1.0 7.75e+06  -4.2 2.29e-02 3.27e-04h  8
iter    objective    inf_pr   inf_du lg(mu)  ||d||  lg(rg) alpha_du alpha_pr  ls
  20  1.0868516e+02 1.75e+01 3.73e+07  -1.0 7.78e+06  -4.6 4.29e-04 8.84e-03f  5
  21r 1.0868516e+02 1.75e+01 1.00e+03   1.2 0.00e+00    -  0.00e+00 3.11e-07R  4
  22r 1.0868515e+02 5.51e+00 1.04e+03   1.2 1.46e+04    -  5.86e-03 1.19e-03f  1
  23r 1.0868515e+02 5.51e+00 9.99e+02   0.7 0.00e+00    -  0.00e+00 4.92e-07R  5
  24r 1.0868516e+02 1.21e+00 9.97e+02   0.7 4.77e+03    -  2.33e-03 1.15e-03f  1
  25  1.0872159e+02 1.21e+00 1.57e+02  -1.0 3.04e+05    -  2.20e-01 1.41e-03h  1
  26  1.0890389e+02 1.21e+00 6.22e+02  -1.0 5.52e+06    -  1.13e-03 2.86e-04h  1
  27  1.0897902e+02 1.21e+00 3.42e+03  -1.0 4.14e+06    -  7.03e-04 1.56e-04f  1
  28  7.1471752e+01 3.89e+01 3.38e+06  -1.0 6.79e+07    -  4.57e-05 5.58e-03f  3
  29  7.1782397e+01 3.89e+01 3.38e+06  -1.0 4.38e+06    -  2.06e-01 8.12e-04h  1
iter    objective    inf_pr   inf_du lg(mu)  ||d||  lg(rg) alpha_du alpha_pr  ls
  30  9.1370946e+01 3.75e+01 3.27e+06  -1.0 6.39e+06    -  1.52e-01 3.55e-02h  4
  31  1.0116107e+02 3.71e+01 3.24e+06  -1.0 8.90e+06    -  1.33e-01 1.13e-02h  5
  32  1.0168401e+02 3.71e+01 3.24e+06  -1.0 1.03e+07    -  6.63e-02 5.01e-04h  9
  33  1.0180860e+02 3.70e+01 3.24e+06  -1.0 1.06e+07    -  8.25e-04 1.16e-04h 11
  34  1.0205812e+02 3.70e+01 3.23e+06  -1.0 1.06e+07    -  2.01e-02 2.31e-04f 10
  35  2.9806003e+02 3.27e+01 3.02e+06  -1.0 1.07e+07    -  1.34e-02 1.16e-01h  1
  36  2.9808836e+02 3.27e+01 3.02e+06  -1.0 1.05e+06  -5.1 3.22e-03 2.41e-04h  1
  37  3.0125770e+02 3.27e+01 3.02e+06  -1.0 3.40e+07    -  3.61e-04 4.60e-04h  1
  38  3.0125915e+02 3.27e+01 3.02e+06  -1.0 1.19e+06  -5.6 3.95e-01 6.59e-06f  1
  39  3.1045181e+02 3.26e+01 3.01e+06  -1.0 1.50e+07    -  1.22e-01 3.19e-03h  1
iter    objective    inf_pr   inf_du lg(mu)  ||d||  lg(rg) alpha_du alpha_pr  ls
  40  4.9835730e+02 3.08e+01 2.86e+06  -1.0 1.54e+07    -  2.31e-03 5.44e-02h  1
  41  2.5121429e+03 2.39e+01 4.12e+07  -1.0 2.17e+07    -  6.56e-03 2.26e-01h  1
  42  2.5126032e+03 2.38e+01 4.12e+07  -1.0 2.81e+06  -6.1 8.19e-03 6.53e-04h  1
  43  2.5965733e+03 2.38e+01 4.12e+07  -1.0 1.77e+08    -  1.15e-03 8.44e-04h  1
  44  2.6001991e+03 2.38e+01 4.12e+07  -1.0 2.02e+08    -  6.14e-04 3.15e-05h  1
  45  7.5841845e+03 2.32e+01 2.20e+08  -1.0 2.64e+08    -  4.19e-05 2.41e-02h  5
  46  7.5782571e+03 2.31e+01 2.18e+08  -1.0 3.65e+06  -6.5 1.31e-01 7.90e-03h  1
  47  7.4394268e+03 2.31e+01 2.18e+08  -1.0 6.40e+08    -  1.13e-04 2.46e-04f  1
  48  7.4381589e+03 2.31e+01 2.18e+08  -1.0 3.83e+06  -7.0 1.06e-02 2.68e-04h  1
  49  7.4354726e+03 2.31e+01 2.18e+08  -1.0 4.03e+08    -  1.91e-04 7.65e-06f  1
iter    objective    inf_pr   inf_du lg(mu)  ||d||  lg(rg) alpha_du alpha_pr  ls
  50  1.8304505e+03 2.23e+01 1.88e+09  -1.0 4.28e+08    -  9.11e-05 3.45e-02f  1
  51  2.2118169e+03 2.12e+01 1.79e+09  -1.0 2.91e+07  -5.7 3.79e-03 4.85e-02h  3
  52  2.2301138e+03 2.06e+01 1.74e+09  -1.0 6.17e+06  -5.3 1.20e-02 2.91e-02h  1
  53  2.2301635e+03 2.06e+01 1.74e+09  -1.0 2.90e+06  -4.8 2.06e-01 4.24e-04h  1
  54  2.2519660e+03 1.96e+01 1.65e+09  -1.0 9.21e+06  -5.3 1.34e-03 4.49e-02h  1
  55  2.2517941e+03 1.96e+01 1.65e+09  -1.0 4.28e+06  -4.9 6.10e-02 3.95e-04h  1
  56  2.2507604e+03 1.96e+01 1.65e+09  -1.0 2.52e+08  -5.4 1.04e-03 1.89e-05h  1
  57  2.2508388e+03 1.96e+01 1.65e+09  -1.0 2.86e+06  -4.9 6.90e-03 1.44e-04h  1
  58  2.2509855e+03 1.96e+01 1.65e+09  -1.0 2.52e+06  -4.5 1.73e-04 3.83e-04h  1
  59  2.2727390e+03 1.89e+01 1.59e+09  -1.0 3.13e+06  -5.0 1.47e-02 3.58e-02h  1
iter    objective    inf_pr   inf_du lg(mu)  ||d||  lg(rg) alpha_du alpha_pr  ls
  60  2.2728704e+03 1.89e+01 1.59e+09  -1.0 2.12e+06  -4.6 3.33e-03 3.23e-04h  1
  61r 2.2728704e+03 1.89e+01 1.00e+03   1.3 0.00e+00  -5.0 0.00e+00 2.70e-07R  5
  62r 2.2728704e+03 4.29e+00 1.02e+03   1.3 1.42e+04    -  7.98e-03 1.31e-03f  1
  63  2.2728726e+03 4.29e+00 4.44e+03  -1.0 1.25e+06    -  1.61e-01 4.21e-05h  1
  64  2.2733541e+03 4.29e+00 1.35e+04  -1.0 4.11e+06    -  8.76e-04 2.92e-04h  1
  65  2.2759556e+03 4.28e+00 1.25e+04  -1.0 3.81e+06    -  8.80e-05 1.79e-03f  1
  66  2.2771258e+03 4.28e+00 1.17e+04  -1.0 8.27e+06    -  4.68e-04 4.08e-04f  1
  67  2.2796398e+03 4.28e+00 1.10e+04  -1.0 8.55e+06    -  8.95e-04 8.48e-04h  1
  68  2.3860328e+03 4.14e+00 2.14e+06  -1.0 8.52e+06    -  1.89e-01 3.45e-02h  1
  69  3.7289651e+03 3.44e+00 8.14e+07  -1.0 1.05e+07    -  3.68e-02 2.48e-01h  1
iter    objective    inf_pr   inf_du lg(mu)  ||d||  lg(rg) alpha_du alpha_pr  ls
  70  3.7603049e+03 2.78e+00 7.34e+07  -1.0 3.73e+06    -  2.27e-01 2.64e-01h  2
  71  3.7421333e+03 3.51e+00 5.86e+07  -1.0 4.85e+06    -  2.41e-01 1.94e-01f  3
  72  4.1772683e+03 7.34e+00 1.37e+07  -1.0 7.70e+06    -  2.50e-01 4.22e-01h  2
  73  5.2734820e+03 6.43e+00 8.52e+06  -1.0 2.35e+07    -  5.75e-01 1.23e-01h  4
  74  8.6527069e+03 5.95e+00 7.76e+07  -1.0 7.62e+07    -  1.49e-01 7.54e-02h  1
  75  7.8065101e+03 5.81e+00 7.31e+07  -1.0 3.77e+07    -  1.27e-01 2.36e-02f  5
  76  1.6967000e+03 1.12e+01 5.81e+08  -1.0 4.68e+07    -  1.58e-01 1.10e-01F  1
  77  1.7245562e+03 1.09e+01 5.63e+08  -1.0 6.44e+06  -5.5 3.06e-01 3.35e-02h  4
  78  1.5925079e+03 1.24e+01 4.61e+08  -1.0 8.07e+06  -6.0 3.64e-01 1.55e-01f  2
  79  1.2624648e+03 1.08e+01 4.12e+08  -1.0 9.79e+06  -6.5 5.47e-01 1.34e-01f  2
iter    objective    inf_pr   inf_du lg(mu)  ||d||  lg(rg) alpha_du alpha_pr  ls
  80  1.2141373e+03 1.04e+01 3.34e+08  -1.0 5.06e+06  -6.0 7.14e-02 2.01e-01f  2
  81  1.2012101e+03 1.02e+01 3.29e+08  -1.0 3.98e+06  -5.6 6.32e-05 1.46e-02f  2
  82r 1.2012101e+03 1.02e+01 1.00e+03   1.0 0.00e+00  -5.2 0.00e+00 3.72e-07R  4
  83r 1.2012106e+03 5.55e+00 1.01e+03   1.0 4.80e+03    -  3.36e-03 2.11e-03f  1
  84  1.2012361e+03 5.55e+00 7.33e+03  -1.0 1.49e+06    -  3.65e-01 6.41e-05h  1
  85  1.2184942e+03 5.50e+00 4.09e+05  -1.0 6.38e+06    -  4.62e-01 8.16e-03h  2
  86  3.5560335e+03 7.60e+00 6.86e+06  -1.0 1.90e+07    -  1.60e-01 2.47e-01h  3
  87  3.6983677e+03 7.49e+00 6.87e+06  -1.0 1.55e+07    -  3.97e-01 1.43e-02h  6
  88  3.7232050e+03 7.47e+00 6.86e+06  -1.0 1.58e+07    -  3.97e-01 2.43e-03h  8
  89  3.7109908e+03 7.24e+00 6.68e+06  -1.0 8.11e+05    -  3.30e-01 3.10e-02f  5
iter    objective    inf_pr   inf_du lg(mu)  ||d||  lg(rg) alpha_du alpha_pr  ls
  90  3.7277412e+03 7.23e+00 6.68e+06  -1.0 3.94e+07    -  2.13e-01 6.62e-04h  9
  91  6.5389349e+03 6.65e+00 4.42e+07  -1.0 4.54e+07    -  8.65e-01 8.11e-02h  2
  92  3.2529851e+03 1.80e+01 1.73e+07  -1.0 9.73e+06    -  2.86e-01 4.44e-01f  1
  93  3.2599847e+03 1.80e+01 1.73e+07  -1.0 6.38e+06    -  3.00e-02 1.75e-03h  5
  94  3.2603847e+03 1.80e+01 1.73e+07  -1.0 6.53e+06    -  3.43e-02 9.78e-05h  9
  95  3.2604862e+03 1.80e+01 1.72e+07  -1.0 6.70e+06    -  2.25e-01 2.42e-05h 11
  96r 3.2604862e+03 1.80e+01 1.00e+03   1.3 0.00e+00    -  0.00e+00 3.66e-07R 17
  97r 3.2604876e+03 6.21e+00 1.07e+03   1.3 1.08e+04    -  3.59e-03 1.64e-03f  1
  98r 3.2604876e+03 6.21e+00 9.99e+02   0.8 0.00e+00    -  0.00e+00 3.44e-07R  7
  99r 3.2604884e+03 4.62e+00 9.98e+02   0.8 4.43e+03    -  5.48e-04 1.36e-03f  1
iter    objective    inf_pr   inf_du lg(mu)  ||d||  lg(rg) alpha_du alpha_pr  ls
 100  3.2606895e+03 4.61e+00 3.72e+02  -1.0 2.21e+06    -  6.84e-04 9.24e-04h  3
 101  3.2607682e+03 4.61e+00 5.18e+02  -1.0 2.20e+06    -  1.17e-04 5.67e-04h  2
 102  3.2607797e+03 4.61e+00 5.00e+02  -1.0 2.20e+06    -  1.84e-01 7.74e-05h  4
 103  3.2608408e+03 4.61e+00 7.56e+02  -1.0 2.84e+06    -  3.52e-04 3.52e-04s 11
 104r 3.2608408e+03 4.61e+00 9.99e+02   0.7 0.00e+00    -  0.00e+00 0.00e+00R  1
 105r 3.2608412e+03 4.59e+00 9.97e+02   0.7 3.59e+03    -  2.75e-03 2.13e-03f  1
 106r 3.2608417e+03 4.56e+00 9.94e+02   0.7 3.90e+03    -  7.85e-03 2.57e-03f  1
 107r 3.2608429e+03 4.49e+00 9.86e+02   0.7 4.00e+03    -  2.51e-02 7.84e-03f  1
 108r 3.2608451e+03 4.40e+00 9.73e+02   0.7 4.37e+02    -  2.20e-02 1.39e-02f  1
 109r 3.2608451e+03 4.38e+00 9.66e+02   0.7 1.10e+02   0.0 9.41e-04 7.61e-03f  1
iter    objective    inf_pr   inf_du lg(mu)  ||d||  lg(rg) alpha_du alpha_pr  ls
 110r 3.2608451e+03 4.35e+00 9.61e+02   0.7 1.08e+02  -0.5 3.02e-02 4.94e-03f  1
 111r 3.2608451e+03 3.44e+00 9.37e+02   0.7 4.39e+02  -1.0 4.09e-03 2.81e-02f  1
 112r 3.2608451e+03 3.44e+00 9.99e+02   0.5 0.00e+00    -  0.00e+00 3.03e-07R 15
 113r 3.2608451e+03 3.12e+00 9.96e+02   0.5 2.22e+03    -  5.39e-03 2.72e-03f  1
 114r 3.2608450e+03 1.45e+00 9.89e+02   0.5 3.18e+03    -  5.49e-03 7.36e-03f  1
 115  3.2659593e+03 7.89e+01 6.07e+02  -1.0 1.43e+06    -  5.90e-03 5.90e-03s 15
 116  3.2681334e+03 7.87e+01 4.57e+03  -1.0 1.44e+06    -  2.45e-03 2.45e-03s 15
 117  3.2814428e+03 7.76e+01 1.84e+05  -1.0 1.63e+06    -  1.41e-02 1.41e-02s 15
 118  3.2836054e+03 7.76e+01 2.03e+05  -1.0 2.26e+07    -  1.55e-04 1.55e-04s 15
 119r 3.2836054e+03 7.76e+01 1.00e+03   1.9 0.00e+00    -  0.00e+00 0.00e+00R  1
iter    objective    inf_pr   inf_du lg(mu)  ||d||  lg(rg) alpha_du alpha_pr  ls
 120r 3.2836054e+03 1.42e+01 9.95e+02   1.9 2.82e+04    -  7.55e-03 2.72e-03f  1
 121r 3.2836054e+03 1.34e+01 9.82e+02   1.9 2.57e+02    -  5.74e-02 4.63e-03f  1
 122r 3.2836060e+03 1.18e+01 8.57e+02   1.9 1.73e+02    -  9.35e-02 1.29e-01f  1
 123  3.2817597e+03 1.18e+01 1.49e+02  -1.0 2.97e+06    -  2.40e-03 1.65e-03f  1
 124  3.2892617e+03 1.14e+01 5.34e+03  -1.0 1.24e+06    -  5.57e-04 3.49e-02h  3
 125  3.2844140e+03 1.10e+01 5.64e+03  -1.0 1.30e+06    -  1.21e-01 3.03e-02f  1
 126  3.2767208e+03 9.89e+00 6.19e+03  -1.0 3.52e+05    -  3.57e-03 1.03e-01f  1
 127  3.2766741e+03 9.88e+00 6.42e+03  -1.0 5.27e+05  -4.8 1.03e-03 1.24e-03h  1
 128r 3.2766741e+03 9.88e+00 9.99e+02   1.0 0.00e+00  -3.4 0.00e+00 2.65e-07R  6
 129r 3.2766740e+03 7.83e+00 9.95e+02   1.0 1.02e+04    -  8.19e-03 1.13e-03f  1
iter    objective    inf_pr   inf_du lg(mu)  ||d||  lg(rg) alpha_du alpha_pr  ls
 130  3.2767258e+03 7.81e+00 6.21e+02  -1.0 1.28e+06    -  1.31e-02 1.61e-03h  4
 131  3.2766122e+03 7.75e+00 2.76e+03  -1.0 1.09e+06    -  2.60e-02 7.73e-03h  2
 132  3.2765353e+03 7.73e+00 2.75e+03  -1.0 5.72e+05    -  1.53e-01 2.56e-03h  2
 133  3.2764847e+03 7.72e+00 3.19e+03  -1.0 8.88e+05    -  1.38e-01 1.68e-03h  3
 134  3.2760374e+03 7.62e+00 6.90e+03  -1.0 1.14e+06    -  1.25e-01 1.35e-02h  1
 135  3.2760321e+03 7.62e+00 1.30e+04  -1.0 1.22e+06    -  1.56e-01 6.63e-05h  2
 136  3.2573884e+03 7.60e+00 6.22e+05  -1.0 1.71e+07    -  2.75e-01 1.73e-03f  1
 137  1.9606161e+03 6.96e+00 3.31e+07  -1.0 2.77e+07    -  3.89e-01 8.50e-02f  1
 138  1.8092958e+03 6.21e+00 3.13e+07  -1.0 3.78e+06    -  6.75e-01 1.08e-01f  1
 139  1.8792977e+03 5.77e+00 3.02e+07  -1.0 2.10e+06    -  4.82e-01 7.03e-02h  2
iter    objective    inf_pr   inf_du lg(mu)  ||d||  lg(rg) alpha_du alpha_pr  ls
 140  1.8898729e+03 5.70e+00 2.99e+07  -1.0 1.81e+06    -  3.73e-01 1.14e-02h  3
 141  2.0515246e+03 5.23e+00 3.51e+07  -1.0 4.06e+06    -  2.93e-02 8.37e-02h  3
 142  2.0516823e+03 5.23e+00 3.51e+07  -1.0 8.32e+06    -  1.80e-01 3.77e-05h 10
 143  2.0531511e+03 5.23e+00 3.51e+07  -1.0 9.98e+06    -  9.07e-02 3.02e-04h  7
 144  2.0533765e+03 5.22e+00 3.50e+07  -1.0 2.75e+06  -3.9 3.51e-01 1.19e-03h  5
 145  2.0534078e+03 5.22e+00 3.50e+07  -1.0 2.71e+06  -4.4 1.27e-01 2.83e-04h  7
 146  2.0537114e+03 5.21e+00 3.49e+07  -1.0 2.70e+06  -4.0 2.16e-01 2.23e-03h  4
 147  2.0538667e+03 5.20e+00 3.49e+07  -1.0 2.65e+06  -4.4 1.86e-01 1.00e-03h  5
 148  2.0559914e+03 5.16e+00 5.79e+07  -1.0 2.63e+06  -4.9 9.22e-01 7.54e-03h  2
 149  2.0574853e+03 5.67e+00 5.14e+10  -1.0 2.42e+06  -1.8 9.84e-02 8.27e-03w  1
iter    objective    inf_pr   inf_du lg(mu)  ||d||  lg(rg) alpha_du alpha_pr  ls
 150  2.0912151e+03 1.40e+01 8.96e+10  -1.0 2.60e+05  -2.3 1.79e-02 4.33e-01w  1
 151  2.0913273e+03 1.37e+01 8.78e+10  -1.0 3.59e+05  -0.9 5.22e-04 2.05e-02w  1
 152  2.0560376e+03 5.16e+00 3.94e+08  -1.0 1.48e+05  -0.5 9.84e-02 2.58e-04h  5
 153  2.0561219e+03 5.16e+00 1.03e+11  -1.0 2.42e+06  -1.0 7.64e-01 3.63e-04h  4
 154  2.0896987e+02 8.45e+00 1.03e+11  -1.0 1.01e+10    -  4.93e-04 7.56e-04f  1
 155  1.9247617e+02 1.20e+01 9.99e+10  -1.0 2.37e+08    -  1.08e-03 1.85e-03f  5
 156  2.1996785e+02 7.95e+00 8.05e+10  -1.0 1.14e+06    -  1.95e-01 4.47e-01h  1
 157  2.3778850e+02 1.56e+01 6.05e+10  -1.0 7.20e+05    -  2.44e-01 3.86e-01h  2
 158  2.4052129e+02 1.46e+01 5.39e+10  -1.0 8.87e+05    -  1.08e-01 6.31e-02h  4
 159  2.4054284e+02 1.46e+01 5.33e+10  -1.0 8.88e+05    -  1.01e-02 5.91e-04h  5
iter    objective    inf_pr   inf_du lg(mu)  ||d||  lg(rg) alpha_du alpha_pr  ls
 160  2.4054767e+02 1.46e+01 5.09e+10  -1.0 8.88e+05    -  4.49e-02 1.32e-04h  7
 161  2.4054885e+02 1.46e+01 4.02e+10  -1.0 8.88e+05    -  2.07e-01 3.22e-05h  9
 162  2.4054944e+02 1.46e+01 3.98e+10  -1.0 8.87e+05    -  1.07e-02 1.60e-05h 10
 163  2.4085143e+02 2.16e+02 3.95e+10  -1.0 8.87e+05    -  8.12e-03 8.12e-03s 15
 164  2.4080008e+02 2.16e+02 3.94e+10  -1.0 1.61e+06    -  1.17e-03 1.17e-03s 15
 165r 2.4080008e+02 2.16e+02 1.00e+03   2.3 0.00e+00    -  0.00e+00 0.00e+00R  1
 166r 2.4079974e+02 9.61e+01 1.00e+03   2.3 7.08e+03    -  1.36e-03 1.69e-02f  1
 167r 2.4079959e+02 2.97e+01 4.27e+03   2.3 2.21e+04    -  4.39e-03 4.31e-03f  1
 168  2.4110871e+02 2.96e+01 1.03e+04  -1.0 4.85e+06    -  1.33e-04 1.34e-03h  1
 169r 2.4110871e+02 2.96e+01 9.99e+02   1.5 0.00e+00    -  0.00e+00 2.74e-07R  6
iter    objective    inf_pr   inf_du lg(mu)  ||d||  lg(rg) alpha_du alpha_pr  ls
 170r 2.4110875e+02 2.01e+01 9.93e+02   1.5 2.55e+04    -  6.95e-03 1.15e-03f  1
 171  2.4123914e+02 2.00e+01 9.26e+03  -1.0 5.92e+06    -  1.57e-03 5.53e-04h  1
 172  2.4123933e+02 1.94e+01 9.04e+03  -1.0 5.99e+06    -  6.57e-04 5.46e-06H  1
 173  2.4122850e+02 1.28e+01 1.70e+04  -1.0 4.10e+09    -  8.39e-07 5.20e-08H  1
 174r 2.4122850e+02 1.28e+01 1.00e+03   1.1 0.00e+00    -  0.00e+00 1.62e-10R  2
 175r 2.4122847e+02 1.28e+02 1.97e+09   1.1 1.47e+03    -  2.37e-02 3.40e-03f  1
MA27BD returned iflag=-4 and requires more memory.
 Increase liw from 21955 to 43910 and la from 25360 to 51938 and factorize again.
 176r 2.4122847e+02 1.27e+02 4.01e+15   1.1 1.16e+00  12.0 1.15e-02 6.70e-03h  1
 177r 2.4122847e+02 1.27e+02 6.83e+17   1.1 1.26e+00  19.8 2.87e-02 6.74e-05h  1
WARNING: Problem in step computation; switching to emergency mode.
 178r 2.4122847e+02 1.27e+02 6.83e+17   1.1 1.26e+00  20.0 0.00e+00 0.00e+00R  1
WARNING: Problem in step computation; switching to emergency mode.
Restoration phase is called at point that is almost feasible,
  with constraint violation 0.000000e+00. Abort.
Restoration phase in the restoration phase failed.

Number of Iterations....: 178

                                   (scaled)                 (unscaled)
Objective...............:   2.4122846710612592e+02    2.4122846710612592e+02
Dual infeasibility......:   6.8274330820610010e+17    6.8274330820610010e+17
Constraint violation....:   1.2705353428672632e+02    1.2705353428672632e+02
Complementarity.........:   9.3526700329050839e+08    9.3526700329050839e+08
Overall NLP error.......:   9.3526700329050839e+08    6.8274330820610010e+17


Number of objective function evaluations             = 620
Number of objective gradient evaluations             = 166
Number of equality constraint evaluations            = 620
Number of inequality constraint evaluations          = 0
Number of equality constraint Jacobian evaluations   = 192
Number of inequality constraint Jacobian evaluations = 0
Number of Lagrangian Hessian evaluations             = 179
Total CPU secs in IPOPT (w/o function evaluations)   =      0.383
Total CPU secs in NLP function evaluations           =      6.520

EXIT: Restoration Failed!
